 vasp.5.4.4.18Apr17-6-g9f103f2a35 (build Jul 14 2020 19:13:21) complex

 executed on             LinuxIFC date 2022.02.23  14:21:43

 INCAR:
 POTCAR:    PAW_PBE Tl 08Apr2002
 POTCAR:    PAW_PBE Se 06Sep2000

 POTCAR:    PAW_PBE Tl 08Apr2002
   VRHFIN =Tl:

   TITEL  = PAW_PBE Tl 08Apr2002
   POMASS =  204.380; ZVAL   =    3.000    mass and valenz
   ENMAX  =   90.140; ENMIN  =   67.605 eV

 POTCAR:    PAW_PBE Se 06Sep2000
   VRHFIN =Se: s2p4

   TITEL  = PAW_PBE Se 06Sep2000
   POMASS =   78.960; ZVAL   =    6.000    mass and valenz
   ENMAX  =  211.555; ENMIN  =  158.666 eV

  PAW_PBE Tl 08Apr2002                  :
  PAW_PBE Se 06Sep2000                  :

 POSCAR: Tl2Se2
  positions in direct lattice
 exchange correlation table for  LEXCH =        8
   RHO(1)=    0.500       N(1)  =     2000
   RHO(2)=  100.500       N(2)  =     4000

 VTST: version 3.2, (02/03/18)

 CHAIN: initializing optimizer

 OPT: Using VASP Dynamics algorithm
 CHAIN: Read ICHAIN            0

 POSCAR: Tl2Se2
  positions in direct lattice

 ion  position               nearest neighbor table
   1  0.000  0.000  0.442-   3 2.77   3 2.77   3 2.77   2 2.82
   2  0.000  0.000  0.558-   4 2.77   4 2.77   4 2.77   1 2.82
   3  0.667  0.333  0.388-   1 2.77   1 2.77   1 2.77
   4  0.333  0.667  0.612-   2 2.77   2 2.77   2 2.77

  LATTYP: Found a hexagonal cell.
 ALAT       =     4.2200053032
 C/A-ratio  =     5.7870380842

  Lattice vectors:

 A1 = (   4.2200040817,   0.0000000000,   0.0000000000)
 A2 = (  -2.1100003425,   3.6546311688,   0.0000000000)
 A3 = (   0.0000000000,   0.0000000000,  24.4213314056)

Analysis of symmetry for initial positions (statically):
 Subroutine PRICEL returns:
 Original cell was already a primitive cell.

 Routine SETGRP: Setting up the symmetry group for a
 hexagonal supercell.

 Subroutine GETGRP returns: Found 12 space group operations
 (whereof 12 operations were pure point group operations)
 out of a pool of 24 trial point group operations.

The static configuration has the point symmetry D_3d.

Analysis of symmetry for dynamics (positions and initial velocities):
 Subroutine PRICEL returns:
 Original cell was already a primitive cell.

 Routine SETGRP: Setting up the symmetry group for a
 hexagonal supercell.

 Subroutine GETGRP returns: Found 12 space group operations
 (whereof 12 operations were pure point group operations)
 out of a pool of 24 trial point group operations.

The dynamic configuration has the point symmetry D_3d.

 Subroutine INISYM returns: Found 12 space group operations
 (whereof 12 operations are pure point group operations),
 and found     1 'primitive' translations

 KPOINTS: KPT-Resolved Value to Generate K-Mesh: 0

Automatic generation of k-mesh.
Space group operators:
 irot       det(A)        alpha          n_x          n_y          n_z        tau_x        tau_y        tau_z
    1     1.000000     0.000001     1.000000     0.000000     0.000000     0.000000     0.000000     0.000000
    2    -1.000000     0.000001     1.000000     0.000000     0.000000     0.000000     0.000000     0.000000
    3     1.000000   120.000000     0.000000     0.000000    -1.000000     0.000000     0.000000     0.000000
    4    -1.000000   120.000000     0.000000     0.000000    -1.000000     0.000000     0.000000     0.000000
    5     1.000000   120.000000     0.000000     0.000000     1.000000     0.000000     0.000000     0.000000
    6    -1.000000   120.000000     0.000000     0.000000     1.000000     0.000000     0.000000     0.000000
    7     1.000000   179.999999     1.000000    -0.000000     0.000000     0.000000     0.000000     0.000000
    8    -1.000000   179.999999     1.000000    -0.000000     0.000000     0.000000     0.000000     0.000000
    9     1.000000   180.000000     0.500000    -0.866025     0.000000     0.000000     0.000000     0.000000
   10    -1.000000   180.000000     0.500000    -0.866025     0.000000     0.000000     0.000000     0.000000
   11     1.000000   180.000000    -0.500000    -0.866025     0.000000     0.000000     0.000000     0.000000
   12    -1.000000   180.000000    -0.500000    -0.866025     0.000000     0.000000     0.000000     0.000000

 Subroutine IBZKPT returns following result:

 Found     96 irreducible k-points:

 Following reciprocal coordinates:
            Coordinates               Weight
  0.000000  0.000000  0.000000      1.000000
  0.032258  0.000000  0.000000      6.000000
  0.064516  0.000000  0.000000      6.000000
  0.096774  0.000000  0.000000      6.000000
  0.129032  0.000000  0.000000      6.000000
  0.161290  0.000000  0.000000      6.000000
  0.193548  0.000000  0.000000      6.000000
  0.225806 -0.000000  0.000000      6.000000
  0.258065  0.000000  0.000000      6.000000
  0.290323  0.000000  0.000000      6.000000
  0.322581  0.000000  0.000000      6.000000
  0.354839  0.000000  0.000000      6.000000
  0.387097  0.000000  0.000000      6.000000
  0.419355  0.000000  0.000000      6.000000
  0.451613 -0.000000  0.000000      6.000000
  0.483871 -0.000000  0.000000      6.000000
  0.032258  0.032258  0.000000      6.000000
  0.064516  0.032258  0.000000     12.000000
  0.096774  0.032258  0.000000     12.000000
  0.129032  0.032258  0.000000     12.000000
  0.161290  0.032258  0.000000     12.000000
  0.193548  0.032258  0.000000     12.000000
  0.225806  0.032258  0.000000     12.000000
  0.258065  0.032258  0.000000     12.000000
  0.290323  0.032258  0.000000     12.000000
  0.322581  0.032258  0.000000     12.000000
  0.354839  0.032258  0.000000     12.000000
  0.387097  0.032258  0.000000     12.000000
  0.419355  0.032258  0.000000     12.000000
  0.451613  0.032258  0.000000     12.000000
  0.483871  0.032258  0.000000      6.000000
  0.064516  0.064516  0.000000      6.000000
  0.096774  0.064516  0.000000     12.000000
  0.129032  0.064516  0.000000     12.000000
  0.161290  0.064516  0.000000     12.000000
  0.193548  0.064516  0.000000     12.000000
  0.225806  0.064516  0.000000     12.000000
  0.258065  0.064516  0.000000     12.000000
  0.290323  0.064516  0.000000     12.000000
  0.322581  0.064516  0.000000     12.000000
  0.354839  0.064516  0.000000     12.000000
  0.387097  0.064516  0.000000     12.000000
  0.419355  0.064516  0.000000     12.000000
  0.451613  0.064516  0.000000     12.000000
  0.096774  0.096774  0.000000      6.000000
  0.129032  0.096774  0.000000     12.000000
  0.161290  0.096774  0.000000     12.000000
  0.193548  0.096774  0.000000     12.000000
  0.225806  0.096774  0.000000     12.000000
  0.258065  0.096774  0.000000     12.000000
  0.290323  0.096774  0.000000     12.000000
  0.322581  0.096774  0.000000     12.000000
  0.354839  0.096774  0.000000     12.000000
  0.387097  0.096774  0.000000     12.000000
  0.419355  0.096774  0.000000     12.000000
  0.451613  0.096774  0.000000      6.000000
  0.129032  0.129032  0.000000      6.000000
  0.161290  0.129032  0.000000     12.000000
  0.193548  0.129032  0.000000     12.000000
  0.225806  0.129032  0.000000     12.000000
[...]
  0.387097  0.193548  0.000000     12.000000
  0.225806  0.225806  0.000000      6.000000
  0.258065  0.225806  0.000000     12.000000
  0.290323  0.225806  0.000000     12.000000
  0.322581  0.225806  0.000000     12.000000
  0.354839  0.225806  0.000000     12.000000
  0.387097  0.225806  0.000000      6.000000
  0.258065  0.258065  0.000000      6.000000
  0.290323  0.258065  0.000000     12.000000
  0.322581  0.258065  0.000000     12.000000
  0.354839  0.258065  0.000000     12.000000
  0.290323  0.290323  0.000000      6.000000
  0.322581  0.290323  0.000000     12.000000
  0.354839  0.290323  0.000000      6.000000
  0.322581  0.322581  0.000000      6.000000

 Following cartesian coordinates:
            Coordinates               Weight
  0.000000  0.000000  0.000000      1.000000
  0.007644  0.004413  0.000000      6.000000
  0.015288  0.008827  0.000000      6.000000
  0.022932  0.013240  0.000000      6.000000
  0.030576  0.017653  0.000000      6.000000
  0.038220  0.022067  0.000000      6.000000
  0.045865  0.026480  0.000000      6.000000
  0.053509  0.030893  0.000000      6.000000
  0.061153  0.035306  0.000000      6.000000
  0.068797  0.039720  0.000000      6.000000
  0.076441  0.044133  0.000000      6.000000
  0.084085  0.048546  0.000000      6.000000
  0.091729  0.052960  0.000000      6.000000
  0.099373  0.057373  0.000000      6.000000
  0.107017  0.061786  0.000000      6.000000
  0.114661  0.066200  0.000000      6.000000
  0.007644  0.013240  0.000000      6.000000
  0.015288  0.017653  0.000000     12.000000
  0.022932  0.022067  0.000000     12.000000
  0.030576  0.026480  0.000000     12.000000
  0.038220  0.030893  0.000000     12.000000
  0.045865  0.035306  0.000000     12.000000
  0.053509  0.039720  0.000000     12.000000
  0.061153  0.044133  0.000000     12.000000
  0.068797  0.048546  0.000000     12.000000
  0.076441  0.052960  0.000000     12.000000
  0.084085  0.057373  0.000000     12.000000
  0.091729  0.061786  0.000000     12.000000
  0.099373  0.066200  0.000000     12.000000
  0.107017  0.070613  0.000000     12.000000
  0.114661  0.075026  0.000000      6.000000
  0.015288  0.026480  0.000000      6.000000
  0.022932  0.030893  0.000000     12.000000
  0.030576  0.035306  0.000000     12.000000
  0.038220  0.039720  0.000000     12.000000
  0.045865  0.044133  0.000000     12.000000
  0.053509  0.048546  0.000000     12.000000
  0.061153  0.052960  0.000000     12.000000
  0.068797  0.057373  0.000000     12.000000
  0.076441  0.061786  0.000000     12.000000
  0.084085  0.066200  0.000000     12.000000
  0.091729  0.070613  0.000000     12.000000
  0.099373  0.075026  0.000000     12.000000
  0.107017  0.079440  0.000000     12.000000
  0.022932  0.039720  0.000000      6.000000
  0.030576  0.044133  0.000000     12.000000
  0.038220  0.048546  0.000000     12.000000
  0.045865  0.052960  0.000000     12.000000
  0.053509  0.057373  0.000000     12.000000
  0.061153  0.061786  0.000000     12.000000
  0.068797  0.066200  0.000000     12.000000
  0.076441  0.070613  0.000000     12.000000
  0.084085  0.075026  0.000000     12.000000
  0.091729  0.079440  0.000000     12.000000
  0.099373  0.083853  0.000000     12.000000
  0.107017  0.088266  0.000000      6.000000
  0.030576  0.052960  0.000000      6.000000
  0.038220  0.057373  0.000000     12.000000
  0.045865  0.061786  0.000000     12.000000
  0.053509  0.066200  0.000000     12.000000
[...]
  0.091729  0.105919  0.000000     12.000000
  0.053509  0.092680  0.000000      6.000000
  0.061153  0.097093  0.000000     12.000000
  0.068797  0.101506  0.000000     12.000000
  0.076441  0.105919  0.000000     12.000000
  0.084085  0.110333  0.000000     12.000000
  0.091729  0.114746  0.000000      6.000000
  0.061153  0.105919  0.000000      6.000000
  0.068797  0.110333  0.000000     12.000000
  0.076441  0.114746  0.000000     12.000000
  0.084085  0.119159  0.000000     12.000000
  0.068797  0.119159  0.000000      6.000000
  0.076441  0.123573  0.000000     12.000000
  0.084085  0.127986  0.000000      6.000000
  0.076441  0.132399  0.000000      6.000000

[...]
   0.25806452  0.03225806  0.00000000       0.012
   0.29032258  0.03225806  0.00000000       0.012
   0.32258065  0.03225806  0.00000000       0.012
   0.35483871  0.03225806  0.00000000       0.012
   0.38709677  0.03225806  0.00000000       0.012
   0.41935484  0.03225806  0.00000000       0.012
   0.45161290  0.03225806  0.00000000       0.012
   0.48387097  0.03225806  0.00000000       0.006
   0.06451613  0.06451613  0.00000000       0.006
   0.09677419  0.06451613  0.00000000       0.012
   0.12903226  0.06451613  0.00000000       0.012
   0.16129032  0.06451613  0.00000000       0.012
   0.19354839  0.06451613  0.00000000       0.012
   0.22580645  0.06451613  0.00000000       0.012
   0.25806452  0.06451613  0.00000000       0.012
   0.29032258  0.06451613  0.00000000       0.012
   0.32258065  0.06451613  0.00000000       0.012
   0.35483871  0.06451613  0.00000000       0.012
   0.38709677  0.06451613  0.00000000       0.012
   0.41935484  0.06451613  0.00000000       0.012
   0.45161290  0.06451613  0.00000000       0.012
   0.09677419  0.09677419  0.00000000       0.006
   0.12903226  0.09677419  0.00000000       0.012
   0.16129032  0.09677419  0.00000000       0.012
   0.19354839  0.09677419  0.00000000       0.012
   0.22580645  0.09677419  0.00000000       0.012
   0.25806452  0.09677419  0.00000000       0.012
   0.29032258  0.09677419  0.00000000       0.012
   0.32258065  0.09677419  0.00000000       0.012
   0.35483871  0.09677419  0.00000000       0.012
   0.38709677  0.09677419  0.00000000       0.012
   0.41935484  0.09677419  0.00000000       0.012
   0.45161290  0.09677419  0.00000000       0.006
   0.12903226  0.12903226  0.00000000       0.006
   0.16129032  0.12903226  0.00000000       0.012
   0.19354839  0.12903226  0.00000000       0.012
   0.22580645  0.12903226  0.00000000       0.012
[...]
   0.38709677  0.19354839  0.00000000       0.012
   0.22580645  0.22580645  0.00000000       0.006
   0.25806452  0.22580645  0.00000000       0.012
   0.29032258  0.22580645  0.00000000       0.012
   0.32258065  0.22580645  0.00000000       0.012
   0.35483871  0.22580645  0.00000000       0.012
   0.38709677  0.22580645  0.00000000       0.006
   0.25806452  0.25806452  0.00000000       0.006
   0.29032258  0.25806452  0.00000000       0.012
   0.32258065  0.25806452  0.00000000       0.012
   0.35483871  0.25806452  0.00000000       0.012
   0.29032258  0.29032258  0.00000000       0.006
   0.32258065  0.29032258  0.00000000       0.012
   0.35483871  0.29032258  0.00000000       0.006
   0.32258065  0.32258065  0.00000000       0.006

 position of ions in fractional coordinates (direct lattice)
   0.00000000  0.00000000  0.44230449
   0.00000000  0.00000000  0.55769652
   0.66666698  0.33333299  0.38816997
   0.33333299  0.66666698  0.61183006

 position of ions in cartesian coordinates  (Angst):
   0.00000000  0.00000000 10.80166458
   0.00000000  0.00000000 13.61969156
   2.11000468  1.21820912  9.47962758
  -0.00000101  2.43642194 14.94170456

 k-point  1 :   0.0000 0.0000 0.0000  plane waves:    4359
 k-point  2 :   0.0323 0.0000 0.0000  plane waves:    4367
 k-point  3 :   0.0645 0.0000 0.0000  plane waves:    4389
 k-point  4 :   0.0968 0.0000 0.0000  plane waves:    4399
 k-point  5 :   0.1290 0.0000 0.0000  plane waves:    4393
 k-point  6 :   0.1613 0.0000 0.0000  plane waves:    4407
 k-point  7 :   0.1935 0.0000 0.0000  plane waves:    4412
 k-point  8 :   0.2258-0.0000 0.0000  plane waves:    4432
 k-point  9 :   0.2581 0.0000 0.0000  plane waves:    4432
 k-point 10 :   0.2903 0.0000 0.0000  plane waves:    4440
 k-point 11 :   0.3226 0.0000 0.0000  plane waves:    4430
 k-point 12 :   0.3548 0.0000 0.0000  plane waves:    4440
 k-point 13 :   0.3871 0.0000 0.0000  plane waves:    4432
 k-point 14 :   0.4194 0.0000 0.0000  plane waves:    4438
 k-point 15 :   0.4516-0.0000 0.0000  plane waves:    4454
 k-point 16 :   0.4839-0.0000 0.0000  plane waves:    4460
 k-point 17 :   0.0323 0.0323 0.0000  plane waves:    4378
 k-point 18 :   0.0645 0.0323 0.0000  plane waves:    4385
 k-point 19 :   0.0968 0.0323 0.0000  plane waves:    4401
 k-point 20 :   0.1290 0.0323 0.0000  plane waves:    4390
 k-point 21 :   0.1613 0.0323 0.0000  plane waves:    4407
 k-point 22 :   0.1935 0.0323 0.0000  plane waves:    4416
 k-point 23 :   0.2258 0.0323 0.0000  plane waves:    4426
 k-point 24 :   0.2581 0.0323 0.0000  plane waves:    4417
 k-point 25 :   0.2903 0.0323 0.0000  plane waves:    4441
 k-point 26 :   0.3226 0.0323 0.0000  plane waves:    4441
 k-point 27 :   0.3548 0.0323 0.0000  plane waves:    4438
 k-point 28 :   0.3871 0.0323 0.0000  plane waves:    4440
 k-point 29 :   0.4194 0.0323 0.0000  plane waves:    4448
 k-point 30 :   0.4516 0.0323 0.0000  plane waves:    4452
 k-point 31 :   0.4839 0.0323 0.0000  plane waves:    4452
 k-point 32 :   0.0645 0.0645 0.0000  plane waves:    4392
 k-point 33 :   0.0968 0.0645 0.0000  plane waves:    4400
 k-point 34 :   0.1290 0.0645 0.0000  plane waves:    4406
 k-point 35 :   0.1613 0.0645 0.0000  plane waves:    4414
 k-point 36 :   0.1935 0.0645 0.0000  plane waves:    4424
 k-point 37 :   0.2258 0.0645 0.0000  plane waves:    4432
 k-point 38 :   0.2581 0.0645 0.0000  plane waves:    4440
 k-point 39 :   0.2903 0.0645 0.0000  plane waves:    4442
 k-point 40 :   0.3226 0.0645 0.0000  plane waves:    4446
 k-point 41 :   0.3548 0.0645 0.0000  plane waves:    4444
 k-point 42 :   0.3871 0.0645 0.0000  plane waves:    4438
 k-point 43 :   0.4194 0.0645 0.0000  plane waves:    4463
 k-point 44 :   0.4516 0.0645 0.0000  plane waves:    4456
 k-point 45 :   0.0968 0.0968 0.0000  plane waves:    4414
 k-point 46 :   0.1290 0.0968 0.0000  plane waves:    4417
 k-point 47 :   0.1613 0.0968 0.0000  plane waves:    4429
 k-point 48 :   0.1935 0.0968 0.0000  plane waves:    4425
 k-point 49 :   0.2258 0.0968 0.0000  plane waves:    4434
 k-point 50 :   0.2581 0.0968 0.0000  plane waves:    4445
 k-point 51 :   0.2903 0.0968 0.0000  plane waves:    4445
 k-point 52 :   0.3226 0.0968 0.0000  plane waves:    4453
 k-point 53 :   0.3548 0.0968 0.0000  plane waves:    4448
 k-point 54 :   0.3871 0.0968 0.0000  plane waves:    4452
 k-point 55 :   0.4194 0.0968 0.0000  plane waves:    4470
 k-point 56 :   0.4516 0.0968 0.0000  plane waves:    4458
 k-point 57 :   0.1290 0.1290 0.0000  plane waves:    4420
 k-point 58 :   0.1613 0.1290 0.0000  plane waves:    4426
 k-point 59 :   0.1935 0.1290 0.0000  plane waves:    4446
 k-point 60 :   0.2258 0.1290 0.0000  plane waves:    4447
[...]
 k-point 82 :   0.3871 0.1935 0.0000  plane waves:    4488
 k-point 83 :   0.2258 0.2258 0.0000  plane waves:    4442
 k-point 84 :   0.2581 0.2258 0.0000  plane waves:    4461
 k-point 85 :   0.2903 0.2258 0.0000  plane waves:    4458
 k-point 86 :   0.3226 0.2258 0.0000  plane waves:    4479
 k-point 87 :   0.3548 0.2258 0.0000  plane waves:    4482
 k-point 88 :   0.3871 0.2258 0.0000  plane waves:    4476
 k-point 89 :   0.2581 0.2581 0.0000  plane waves:    4458
 k-point 90 :   0.2903 0.2581 0.0000  plane waves:    4465
 k-point 91 :   0.3226 0.2581 0.0000  plane waves:    4465
 k-point 92 :   0.3548 0.2581 0.0000  plane waves:    4478
 k-point 93 :   0.2903 0.2903 0.0000  plane waves:    4472
 k-point 94 :   0.3226 0.2903 0.0000  plane waves:    4483
 k-point 95 :   0.3548 0.2903 0.0000  plane waves:    4486
 k-point 96 :   0.3226 0.3226 0.0000  plane waves:    4480

 maximum and minimum number of plane-waves per node :       383      346

 maximum number of plane-waves:      4490
 maximum index in each direction:
   IXMAX=    5   IYMAX=    5   IZMAX=   34
   IXMIN=   -6   IYMIN=   -6   IZMIN=  -34

 parallel 3D FFT for wavefunctions:
    minimum data exchange during FFTs selected (reduces bandwidth)
 parallel 3D FFT for charge:
    minimum data exchange during FFTs selected (reduces bandwidth)

 initial charge density was supplied:
 number of electron      17.9999992 magnetization
 keeping initial charge density in first step

 Maximum index for augmentation-charges         2018 (set IRDMAX)

 First call to EWALD:  gamma=   0.245
 Maximum number of real-space cells 5x 5x 1
 Maximum number of reciprocal cells 2x 2x 8

--------------------------------------- Iteration      1(   1)  ---------------------------------------

 BZINTS: Fermi energy:  6.126549; 18.000000 electrons
         Band energy:  -3.455519;  BLOECHL correction: -0.139290

 eigenvalue-minimisations  :  2496
 total energy-change (2. order) : 0.1265684E+03  (-0.3704342E+03)
 number of electron      17.9999992 magnetization
 augmentation part       17.9999992 magnetization

 Free energy of the ion-electron system (eV)
  alpha Z        PSCENC =         4.00553311
  Ewald energy   TEWEN  =      1172.99973661
  -Hartree energ DENC   =     -1707.93068201
  -exchange      EXHF   =         0.00000000
  -V(xc)+E(xc)   XCENC  =      -203.19223504
  PAW double counting   =       934.65419334     -699.83488953
  entropy T*S    EENTRO =         0.00000000
  eigenvalues    EBANDS =        -3.45551851
  atomic energy  EATOM  =       629.32225094
  Solvation  Ediel_sol  =         0.00000000
  free energy    TOTEN  =       126.56838891 eV

  energy without entropy =      126.56838891  energy(sigma->0) =      126.56838891

[...]

 BZINTS: Fermi energy: -1.267284; 18.000000 electrons
         Band energy:-122.620256;  BLOECHL correction: -0.001809

 eigenvalue-minimisations  :  4130
 total energy-change (2. order) :-0.1191647E+03  (-0.1154834E+03)
 number of electron      17.9999992 magnetization
 augmentation part       17.9999992 magnetization

[...]

--------------------------------------- Iteration      1(   7)  ---------------------------------------

[...]

 eigenvalue-minimisations  :  2632
 total energy-change (2. order) :-0.1312779E-04  (-0.1312742E-04)
 number of electron      17.9999992 magnetization
 augmentation part       17.9999992 magnetization

 Free energy of the ion-electron system (eV)
  alpha Z        PSCENC =         4.00553311
  Ewald energy   TEWEN  =      1172.99973661
  -Hartree energ DENC   =     -1707.93068201
  -exchange      EXHF   =         0.00000000
  -V(xc)+E(xc)   XCENC  =      -203.19223504
  PAW double counting   =       934.65419334     -699.83488953
  entropy T*S    EENTRO =         0.00000000
  eigenvalues    EBANDS =      -142.10820162
  atomic energy  EATOM  =       629.32225094
  Solvation  Ediel_sol  =         0.00000000
  free energy    TOTEN  =       -12.08429420 eV

  energy without entropy =      -12.08429420  energy(sigma->0) =      -12.08429420

 average (electrostatic) potential at core
  the test charge radii are     1.4840  1.0808
  (the norm of the test charge is              1.0000)
       1 -48.0174       2 -48.0178       3 -60.7765       4 -60.7773

 E-fermi :  -3.3194     XC(G=0):  -3.3398     alpha+bet : -2.6379

 k-point     1 :       0.0000    0.0000    0.0000
  band No.  band energies     occupation
      1     -15.6798      2.00000
      2     -15.5840      2.00000
      3      -9.4291      2.00000
      4      -6.9860      2.00000
      5      -3.8140      2.00000
      6      -3.8140      2.00000
      7      -3.7204      2.00000
      8      -3.7204      2.00000
      9      -3.3937      2.00000
     10      -2.7302      0.00000
     11      -1.0247      0.00000
     12       1.4725      0.00000
     13       1.4732      0.00000

[...]

 k-point    96 :       0.3226    0.3226    0.0000
  band No.  band energies     occupation
      1     -14.7865      2.00000
      2     -14.7838      2.00000
      3      -9.7193      2.00000
      4      -8.4566      2.00000
      5      -5.8621      2.00000
      6      -5.8501      2.00000
      7      -4.6976      2.00000
      8      -4.6406      2.00000
      9      -4.5173      2.00000
     10      -1.5717      0.00000
     11      -0.0532      0.00000
     12       0.0245      0.00000
     13       2.1476      0.00000

 soft charge-density along one line, spin component           1
         0         1         2         3         4         5         6         7         8         9
 total charge-density along one line

------------------------ aborting loop because EDIFF is reached ----------------------------------------

 total charge

# of ion       s       p       d       tot
    1        1.458   0.902   0.157   2.518
    2        1.458   0.902   0.157   2.518
    3        1.484   2.263   0.013   3.761
    4        1.484   2.264   0.013   3.761
tot          5.885   6.331   0.341  12.557

         DFTD3 V3.0 Rev 1
 IVDW         = 11
 DF pbe
 parameters
 VDW_S6       =    1.0000
 VDW_S8       =    0.7220
 VDW_SR       =    1.2170
 rs18     =    1.0000
 alpha6   =   14.0000
 alpha8   =   16.0000
 k1-k3    =   16.0000    1.3333   -4.0000
 VDW_RADIUS   =   50.2022 A
 VDW_CNRADIUS =   21.1671 A
 Edisp (eV)   -0.62943

 E6    (eV) :    -0.2093
 E8    (eV) :    -0.4202
 % E8        : 66.75

  FORCE on cell =-STRESS in cart. coord.  units (eV):
  Direction    XX          YY          ZZ          XY          YZ          ZX
  Alpha Z     4.00553     4.00553     4.00553
  Ewald    1541.80715  1541.80693 -1910.61447    -0.00021    -0.00007     0.00015
  Hartree  1650.97432  1650.97434 -1594.00489     0.00002     0.00000    -0.00000
  E(xc)     -72.32000   -72.32000   -73.37028    -0.00000     0.00000    -0.00000
  Local   -3418.61753 -3418.61757  3273.88963    -0.00006     0.00003    -0.00007
  n-local   151.37722   152.56009   153.30599    -1.80948    -0.28578    -0.53255
  augment   -27.10274   -27.10269   -28.31209     0.00004    -0.00000     0.00001
  Kinetic   167.41252   172.50547   175.71325    -5.09807     0.15707     0.40444
  Fock        0.00000     0.00000     0.00000     0.00000     0.00000     0.00000
  vdW        -0.62035    -0.62035    -0.61735     0.00000     0.00000    -0.00000
  Total       0.05393     0.05393    -0.00468     0.00000     0.00000    -0.00000
  in kB       0.22942     0.22942    -0.01991     0.00000     0.00000    -0.00000

 VOLUME and BASIS-vectors are now :
  energy-cutoff  :      300.00
  volume of cell :      376.64
      direct lattice vectors                 reciprocal lattice vectors
     4.220004082  0.000000000  0.000000000     0.236966595  0.136812601  0.000000000
    -2.110000342  3.654631169  0.000000000     0.000000000  0.273625423  0.000000000
     0.000000000  0.000000000 24.421331406     0.000000000  0.000000000  0.040947808

  length of vectors
     4.220004082  4.220003605 24.421331406     0.273625392  0.273625423  0.040947808

 FORCES acting on ions
    electron-ion (+dipol)            ewald-force                    non-local-force                 convergence-correction
   -.806E-05 -.328E-06 0.442E+02   0.534E-04 -.261E-04 -.430E+02   -.139E-16 0.139E-16 -.129E+01   0.219E-06 0.333E-06 -.235E-02
   0.787E-05 -.173E-07 -.442E+02   -.544E-04 0.243E-04 0.430E+02   0.191E-16 -.139E-16 0.129E+01   0.179E-06 0.356E-06 0.238E-02
   -.862E-03 0.530E-03 0.253E+03   -.552E-04 0.269E-04 -.256E+03   0.347E-17 0.000E+00 0.294E+01   -.261E-05 -.392E-05 -.599E-02
   0.888E-03 -.486E-03 -.253E+03   0.563E-04 -.251E-04 0.256E+03   -.347E-17 0.000E+00 -.294E+01   -.209E-05 -.422E-05 0.611E-02
   0.254E-04 0.441E-04 -.328E-02   -.295E-14 0.868E-15 -.284E-13   0.520E-17 0.000E+00 0.444E-15   -.430E-05 -.745E-05 0.145E-03

 POSITION                                       TOTAL-FORCE (eV/Angst)
      0.00000      0.00000     10.80166         0.000000     -0.000000     -0.030487
      0.00000      0.00000     13.61969         0.000000      0.000000      0.030487
      2.11000      1.21821      9.47963        -0.000000     -0.000000      0.016271
     -0.00000      2.43642     14.94170        -0.000000      0.000000     -0.016271
    total drift:                                0.000021      0.000037     -0.003136

  FREE ENERGIE OF THE ION-ELECTRON SYSTEM (eV)
  free  energy   TOTEN  =       -12.71372106 eV

  energy  without entropy=      -12.71372106  energy(sigma->0) =      -12.71372106

 stress matrix after NEB project (eV)
      0.05393      0.00000     -0.00000
      0.00000      0.05393      0.00000
      0.00000      0.00000     -0.00468
  FORCES: max atom, RMS     0.030487    0.024436
  FORCE total and by dimension    0.048872    0.030487
  Stress total and by dimension    0.076415    0.053932
 writing wavefunctions

 total charge

# of ion       s       p       d       tot
    1        1.458   0.902   0.157   2.518
    2        1.458   0.902   0.157   2.518
    3        1.484   2.263   0.013   3.761
    4        1.484   2.264   0.013   3.761
tot          5.885   6.331   0.341  12.557

 BZINTS: Fermi energy: -3.319377; 18.000000 electrons
         Band energy:-142.108202;  BLOECHL correction:  0.000000